0 2305
1 2056
2 2044
3 2044
4 2044
5 1994
6 1962
7 1947
8 1886
9 1886
10 1815
11 1778
12 1777
13 1777
14 1765
15 1735
16 1702
17 1702
18 1702
19 1702
20 1676
21 1676
22 1592
23 1592
24 1508
25 1508
26 1503
27 1497
28 1497
29 1486
30 1486
31 1486
32 1486
33 1467
34 1467
35 1467
36 1467
37 1467
38 1459
39 1457
40 1457
41 1457
42 1457
43 1450
44 1450
45 1450
46 1450
47 1450
48 1450
49 1450
50 1439
51 1439
52 1439
53 1439
54 1439
55 1439
56 1439
57 1439
58 1439
59 1439
60 1439
61 1439
62 1439
63 1439
64 1439
65 1439
66 1439
67 1439
68 1422
69 1422
70 1422
71 1422
72 1422
73 1422
74 1422
75 1422
76 1422
77 1422
78 1422
79 1422
80 1422
81 1422
82 1422
83 1422
84 1422
85 1422
86 1422
87 1422
88 1414
89 1414
90 1414
91 1414
92 1414
93 1414
94 1414
95 1414
96 1414
97 1414
98 1414
99 1414
100 1414
101 1414
102 1414
103 1414
104 1414
105 1414
106 1414
107 1414
108 1414
109 1414
110 1414
111 1414
112 1414
113 1414
114 1414
115 1414
116 1414
117 1414
118 1414
119 1414
120 1414
121 1414
122 1414
123 1414
124 1414
125 1414
126 1414
127 1414
128 1414
129 1414
130 1414
131 1414
132 1414
133 1414
134 1414
135 1414
136 1414
137 1414
138 1414
139 1414
140 1414
141 1414
142 1414
143 1414
144 1414
145 1414
146 1414
147 1413
148 1413
149 1413
150 1413
151 1397
152 1397
153 1397
154 1397
155 1373
156 1373
157 1373
158 1373
159 1373
160 1373
161 1373
162 1373
163 1373
164 1342
165 1342
166 1338
167 1338
168 1338
169 1338
170 1338
171 1338
172 1338
173 1338
174 1338
175 1338
176 1338
177 1334
178 1334
179 1334
180 1334
181 1334
182 1334
183 1334
184 1334
185 1334
186 1334
187 1334
188 1334
189 1334
190 1334
191 1334
192 1334
193 1328
194 1328
195 1328
196 1328
197 1328
198 1328
199 1328
200 1328
201 1328
202 1328
203 1328
204 1328
205 1328
206 1328
207 1316
208 1316
209 1316
210 1316
211 1316
212 1316
213 1316
214 1316
215 1316
216 1316
217 1316
218 1316
219 1316
220 1316
221 1316
222 1316
223 1316
224 1303
225 1303
226 1303
227 1303
228 1303
229 1303
230 1303
231 1303
232 1303
233 1303
234 1303
235 1303
236 1303
237 1303
238 1303
239 1303
240 1303
241 1303
242 1303
243 1303
244 1303
245 1303
246 1303
247 1303
248 1303
249 1303
250 1303
251 1303
252 1303
253 1303
254 1303
255 1298
256 1298
257 1298
258 1298
259 1298
260 1298
261 1298
262 1296
263 1296
264 1296
265 1296
266 1296
267 1296
268 1296
269 1296
270 1296
271 1296
272 1296
273 1296
274 1296
275 1296
276 1296
277 1296
278 1296
279 1287
280 1256
281 1220
282 1212
283 1212
284 1212
285 1212
286 1212
287 1212
288 1212
289 1212
290 1212
291 1212
292 1212
293 1212
294 1212
295 1212
296 1212
297 1212
298 1212
299 1212
300 1212
301 1212
302 1212
303 1208
304 1208
305 1208
306 1208
307 1208
308 1208
309 1208
310 1208
311 1208
312 1208
313 1208
314 1208
315 1208
316 1187
317 1187
318 1187
319 1187
320 1187
321 1187
322 1187
323 1187
324 1187
325 1187
326 1187
327 1187
328 1187
329 1187
330 1187
331 1187
332 1187
333 1187
334 1187
335 1187
336 1187
337 1187
338 1187
339 1187
340 1187
341 1187
342 1187
343 1187
344 1187
345 1187
346 1187
347 1187
348 1187
349 1187
350 1187
351 1187
352 1187
353 1187
354 1187
355 1187
356 1187
357 1187
358 1187
359 1187
360 1187
361 1187
362 1187
363 1187
364 1187
365 1187
366 1187
367 1187
368 1187
369 1187
370 1187
371 1187
372 1187
373 1187
374 1187
375 1187
376 1187
377 1187
378 1187
379 1187
380 1187
381 1187
382 1187
383 1187
384 1187
385 1186
386 1186
387 1186
388 1186
389 1186
390 1186
391 1186
392 1144
393 1144
394 1144
395 1144
396 1144
397 1144
398 1144
399 1144
400 1144
401 1144
402 1144
403 1144
404 1144
405 1144
406 1144
407 1144
408 1139
409 1139
410 1139
411 1139
412 1139
413 1139
414 1139
415 1139
416 1139
417 1139
418 1139
419 1139
420 1139
421 1139
422 1139
423 1139
424 1139
425 1139
426 1130
427 1130
428 1130
429 1130
430 1130
431 1130
432 1130
433 1129
434 1129
435 1129
436 1129
437 1129
438 1129
439 1129
440 1129
441 1129
442 1129
443 1129
444 1129
445 1129
446 1129
447 1129
448 1129
449 1129
450 1129
451 1129
452 1128
453 1128
454 1128
455 1128
456 1128
457 1128
458 1128
459 1128
460 1128
461 1128
462 1128
463 1128
464 1128
465 1128
466 1128
467 1128
468 1128
469 1128
470 1128
471 1128
472 1128
473 1128
474 1128
475 1128
476 1128
477 1128
478 1128
479 1128
480 1128
481 1128
482 1128
483 1128
484 1128
485 1128
486 1128
487 1128
488 1128
489 1128
490 1128
491 1128
492 1128
493 1128
494 1128
495 1128
496 1128
497 1128
498 1128
499 1128
500 1128
501 1128
502 1128
503 1128
504 1092
505 1092
506 1092
507 1092
508 1092
509 1092
510 1092
511 1092
512 1092
513 1092
514 1092
515 1092
516 1092
517 1092
518 1092
519 1092
520 1092
521 1092
522 1092
523 1092
524 1092
525 1092
526 1092
527 1092
528 1092
529 1092
530 1092
531 1092
532 1092
533 1092
534 1092
535 1092
536 1092
537 1092
538 1092
539 1092
540 1092
541 1092
542 1092
543 1092
544 1092
545 1092
546 1092
547 1092
548 1092
549 1092
550 1092
551 1092
552 1092
553 1092
554 1092
555 1092
556 1092
557 1092
558 1088
559 1088
560 1088
561 1088
562 1088
563 1088
564 1088
565 1088
566 1088
567 1088
568 1088
569 1088
570 1088
571 1088
572 1088
573 1088
574 1088
575 1088
576 1088
577 1088
578 1088
579 1088
580 1088
581 1088
582 1088
583 1088
584 1086
585 1086
586 1086
587 1086
588 1086
589 1086
590 1086
591 1086
592 1086
593 1086
594 1086
595 1086
596 1086
597 1086
598 1086
599 1086
600 1086
601 1086
602 1086
603 1086
604 1086
605 1086
606 1086
607 1086
608 1086
609 1086
610 1086
611 1086
612 1086
613 1086
614 1086
615 1086
616 1086
617 1086
618 1086
619 1086
620 1086
621 1086
622 1086
623 1086
624 1086
625 1086
626 1086
627 1086
628 1086
629 1086
630 1086
631 1086
632 1086
633 1086
634 1086
635 1086
636 1086
637 1086
638 1086
639 1086
640 1086
641 1086
642 1086
643 1086
644 1086
645 1086
646 1086
647 1086
648 1086
649 1086
650 1086
651 1086
652 1086
653 1086
654 1086
655 1086
656 1086
657 1086
658 1086
659 1086
660 1086
661 1086
662 1086
663 1086
664 1086
665 1086
666 1086
667 1086
668 1086
669 1086
670 1086
671 1086
672 1086
673 1086
674 1086
675 1086
676 1086
677 1086
678 1086
679 1086
680 1086
681 1086
682 1086
683 1086
684 1086
685 1086
686 1086
687 1086
688 1086
689 1086
690 1086
691 1086
692 1086
693 1086
694 1086
695 1086
696 1086
697 1086
698 1086
699 1086
700 1086
701 1086
702 1086
703 1086
704 1086
705 1086
706 1086
707 1086
708 1086
709 1086
710 1086
711 1086
712 1086
713 1086
714 1086
715 1086
716 1086
717 1086
718 1086
719 1086
720 1086
721 1086
722 1086
723 1086
724 1086
725 1086
726 1086
727 1086
728 1086
729 1086
730 1086
731 1086
732 1086
733 1086
734 1086
735 1086
736 1086
737 1086
738 1086
739 1086
740 1086
741 1086
742 1086
743 1086
744 1086
745 1086
746 1086
747 1086
748 1086
749 1086
750 1086
751 1086
752 1086
753 1086
754 1086
755 1086
756 1086
757 1086
758 1086
759 1086
760 1086
761 1086
762 1086
763 1086
764 1086
765 1086
766 1086
767 1086
768 1086
769 1086
770 1086
771 1086
772 1086
773 1086
774 1086
775 1086
776 1086
777 1086
778 1086
779 1086
780 1086
781 1086
782 1086
783 1086
784 1086
785 1086
786 1086
787 1086
788 1086
789 1086
790 1086
791 1086
792 1086
793 1086
794 1086
795 1086
796 1086
797 1086
798 1086
799 1086
800 1086
801 1086
802 1086
803 1086
804 1086
805 1086
806 1086
807 1086
808 1086
809 1086
810 1086
811 1086
812 1086
813 1086
814 1086
815 1086
816 1086
817 1086
818 1086
819 1086
820 1086
821 1086
822 1086
823 1086
824 1086
825 1086
826 1086
827 1086
828 1086
829 1086
830 1086
831 1086
832 1086
833 1086
834 1086
835 1086
836 1086
837 1086
838 1086
839 1086
840 1086
841 1086
842 1086
843 1086
844 1086
845 1086
846 1086
847 1086
848 1086
849 1086
850 1086
851 1086
852 1086
853 1086
854 1086
855 1086
856 1086
857 1086
858 1086
859 1086
860 1086
861 1086
862 1086
863 1086
864 1086
865 1086
866 1086
867 1086
868 1086
869 1086
870 1086
871 1086
872 1086
873 1086
874 1086
875 1086
876 1086
877 1086
878 1086
879 1086
880 1086
881 1086
882 1086
883 1086
884 1086
885 1086
886 1086
887 1086
888 1086
889 1086
890 1086
891 1086
892 1086
893 1086
894 1086
895 1086
896 1086
897 1086
898 1086
899 1086
900 1086
901 1086
902 1086
903 1086
904 1086
905 1086
906 1086
907 1086
908 1086
909 1086
910 1086
911 1086
912 1086
913 1086
914 1086
915 1086
916 1086
917 1086
918 1086
919 1086
920 1086
921 1086
922 1086
923 1086
924 1086
925 1086
926 1086
927 1086
928 1086
929 1086
930 1086
931 1086
932 1086
933 1086
934 1086
935 1086
936 1086
937 1086
938 1086
939 1086
940 1086
941 1086
942 1086
943 1086
944 1086
945 1086
946 1086
947 1086
948 1086
949 1086
950 1086
951 1086
952 1086
953 1086
954 1086
955 1086
956 1086
957 1086
958 1086
959 1086
960 1086
961 1086
962 1086
963 1086
964 1086
965 1086
966 1086
967 1086
968 1086
969 1086
970 1086
971 1086
972 1086
973 1086
974 1086
975 1086
976 1086
977 1086
978 1086
979 1086
980 1086
981 1086
982 1086
983 1086
984 1086
985 1086
986 1086
987 1086
988 1086
989 1086
990 1086
991 1086
992 1086
993 1086
994 1086
995 1086
996 1086
997 1086
998 1086
999 1086
Best: [[21,30,16,19,32,20,18,4,24,15],
       [25,28,6,26,11,10,23],
       [27,8,7,9,12,5,29,3],
       [31,17,13,2,22,14]], fitness: 1086
